db/data/19222120991793011926326302032691227740.z3.out
-------------------
2500.088092107
